Instance name : SB_bar-n100-6
Authors : 
Date : 
Reference 
Solution
Route 1 : 5 55 37 12 62 47 97 31 30 81 87 1 51 17 67 11 45 27 80 95 9 59 61 33 83 46 77 96 
Route 2 : 15 22 65 29 32 34 82 72 84 79 40 19 90 69 23 73 13 63 3 2 52 53 26 49 76 99 
Route 3 : 20 43 93 18 8 70 16 66 28 68 78 21 71 35 14 85 64 10 58 60 36 86 
Route 4 : 38 25 75 88 41 42 91 7 4 57 54 48 6 92 44 98 56 94 24 50 39 100 89 74 
